NAME: PointSet_Angle_35_2
TYPE: TSP
COMMENT: Points chosen discrete uniformly at random out of ${0, \ldots, 500}^2$.
DIMENSION: 35
EDGE_WEIGHT_TYPE: EUC_2D
NODE_COORD_SECTION
1 476 204
2 407 311
3 311 341
4 67 198
5 232 78
6 189 34
7 498 333
8 82 106
9 86 157
10 397 238
11 2 414
12 281 162
13 219 179
14 478 289
15 80 446
16 335 303
17 396 489
18 113 206
19 329 181
20 404 308
21 259 92
22 342 256
23 171 171
24 109 3
25 74 252
26 242 76
27 166 22
28 486 131
29 201 463
30 421 28
31 154 1
32 331 49
33 490 444
34 255 65
35 371 405
EOF
